MARKOV
691
 2 2 2 2 2 2 2 2 2 2 2 2 2 2 2 2 2 2 2 2 2 2 2 2 2 2 2 2 2 2 2 2 2 2 2 2 2 2 2 2 2 2 2 2 2 2 2 2 2 2 2 2 2 2 2 2 2 2 2 2 2 2 2 2 2 2 2 2 2 2 2 2 2 2 2 2 2 2 2 2 2 2 2 2 2 2 2 2 2 2 2 2 2 2 2 2 2 2 2 2 2 2 2 2 2 2 2 2 2 2 2 2 2 2 2 2 2 2 2 2 2 2 2 2 2 2 2 2 2 2 2 2 2 2 2 2 2 2 2 2 2 2 2 2 2 2 2 2 2 2 2 2 2 2 2 2 2 2 2 2 2 2 2 2 2 2 2 2 2 2 2 2 2 2 2 2 2 2 2 2 2 2 2 2 2 2 2 2 2 2 2 2 2 2 2 2 2 2 2 2 2 2 2 2 2 2 2 2 2 2 2 2 2 2 2 2 2 2 2 2 2 2 2 2 2 2 2 2 2 2 2 2 2 2 2 2 2 2 2 2 2 2 2 2 2 2 2 2 2 2 2 2 2 2 2 2 2 2 2 2 2 2 2 2 2 2 2 2 2 2 2 2 2 2 2 2 2 2 2 2 2 2 2 2 2 2 2 2 2 2 2 2 2 2 2 2 2 2 2 2 2 2 2 2 2 2 2 2 2 2 2 2 2 2 2 2 2 2 2 2 2 2 2 2 2 2 2 2 2 2 2 2 2 2 2 2 2 2 2 2 2 2 2 2 2 2 2 2 2 2 2 2 2 2 2 2 2 2 2 2 2 2 2 2 2 2 2 2 2 2 2 2 2 2 2 2 2 2 2 2 2 2 2 2 2 2 2 2 2 2 2 2 2 2 2 2 2 2 2 2 2 2 2 2 2 2 2 2 2 2 2 2 2 2 2 2 2 2 2 2 2 2 2 2 2 2 2 2 2 2 2 2 2 2 2 2 2 2 2 2 2 2 2 2 2 2 2 2 2 2 2 2 2 2 2 2 2 2 2 2 2 2 2 2 2 2 2 2 2 2 2 2 2 2 2 2 2 2 2 2 2 2 2 2 2 2 2 2 2 2 2 2 2 2 2 2 2 2 2 2 2 2 2 2 2 2 2 2 2 2 2 2 2 2 2 2 2 2 2 2 2 2 2 2 2 2 2 2 2 2 2 2 2 2 2 2 2 2 2 2 2 2 2 2 2 2 2 2 2 2 2 2 2 2 2 2 2 2 2 2 2 2 2 2 2 2 2 2 2 2 2 2 2 2 2 2 2 2 2 2 2 2 2 2 2 2 2 2 2 2 2 2 2 2 2 2 2 2 2 2 2 2 2 2 2 2 2 2 2 2 2 2 2 2 2 2 2 2 2 2 2 2 2 2 2 2 2 2 2 2 2 2 2 2 2 2 2 2 2 2 2 2 2 2 2 2 2 2 2 2 2 2 2 2 2 2 2 2 2 2 2 2 2 2 2 2 2 2 2 2 2 2 2 2 2 2 2 2 2 2 2 2 2 2 2 2 2 2 2 2 2
703
3	74 187 690 
3	161 689 690 
3	128 688 689 
3	135 687 688 
3	183 686 687 
3	108 685 686 
3	151 684 685 
3	118 683 684 
3	4 682 683 
3	238 681 682 
3	18 680 681 
3	129 679 680 
3	195 678 679 
3	76 677 678 
3	234 676 677 
3	81 675 676 
3	62 674 675 
3	148 673 674 
3	43 672 673 
3	200 671 672 
3	79 670 671 
3	223 669 670 
3	127 668 669 
3	63 667 668 
3	247 666 667 
3	72 665 666 
3	10 664 665 
3	28 663 664 
3	157 662 663 
3	97 661 662 
3	20 660 661 
3	17 659 660 
3	240 658 659 
3	139 657 658 
3	121 656 657 
3	181 655 656 
3	210 654 655 
3	35 653 654 
3	39 652 653 
3	30 651 652 
3	98 650 651 
3	83 649 650 
3	243 648 649 
3	34 647 648 
3	159 646 647 
3	7 645 646 
3	49 644 645 
3	120 643 644 
3	57 642 643 
3	253 641 642 
3	138 640 641 
3	137 639 640 
3	180 638 639 
3	37 637 638 
3	262 636 637 
3	176 635 636 
3	198 634 635 
3	89 633 634 
3	52 632 633 
3	67 631 632 
3	184 630 631 
3	29 629 630 
3	94 628 629 
1	628 
3	88 102 627 
3	261 626 627 
3	100 625 626 
3	60 624 625 
3	70 623 624 
3	85 622 623 
3	3 621 622 
3	103 620 621 
3	242 619 620 
3	217 618 619 
3	41 617 618 
3	216 616 617 
3	79 615 616 
3	107 614 615 
3	158 613 614 
3	101 612 613 
3	106 611 612 
3	256 610 611 
3	59 609 610 
3	201 608 609 
3	33 607 608 
3	115 606 607 
3	212 605 606 
3	226 604 605 
3	2 603 604 
3	162 602 603 
3	140 601 602 
3	192 600 601 
3	240 599 600 
3	164 598 599 
3	114 597 598 
3	134 596 597 
3	154 595 596 
3	215 594 595 
3	26 593 594 
3	9 592 593 
3	83 591 592 
3	182 590 591 
3	174 589 590 
3	214 588 589 
3	54 587 588 
3	142 586 587 
3	136 585 586 
3	252 584 585 
3	0 583 584 
3	99 582 583 
3	156 581 582 
1	581 
3	90 255 580 
1	580 
3	73 141 579 
1	579 
3	66 79 578 
3	6 577 578 
3	113 576 577 
3	250 575 576 
3	16 574 575 
3	84 573 574 
3	170 572 573 
3	91 571 572 
3	232 570 571 
3	123 569 570 
3	255 568 569 
3	112 567 568 
3	95 566 567 
3	5 565 566 
3	44 564 565 
3	55 563 564 
3	188 562 563 
3	258 561 562 
1	561 
3	102 124 560 
3	207 559 560 
3	1 558 559 
3	177 557 558 
3	155 556 557 
3	199 555 556 
3	185 554 555 
3	111 553 554 
3	104 552 553 
3	95 551 552 
3	44 550 551 
3	260 549 550 
3	244 548 549 
3	190 547 548 
3	27 546 547 
3	132 545 546 
3	228 544 545 
3	78 543 544 
3	248 542 543 
3	189 541 542 
3	163 540 541 
3	250 539 540 
3	69 538 539 
3	87 537 538 
3	170 536 537 
3	175 535 536 
3	58 534 535 
3	172 533 534 
3	169 532 533 
3	225 531 532 
3	188 530 531 
3	241 529 530 
3	15 528 529 
3	220 527 528 
3	191 526 527 
3	113 525 526 
3	240 524 525 
3	145 523 524 
3	139 522 523 
3	222 521 522 
3	92 520 521 
3	208 519 520 
3	204 518 519 
3	12 517 518 
3	8 516 517 
3	6 515 516 
3	48 514 515 
3	84 513 514 
3	227 512 513 
3	147 511 512 
3	160 510 511 
3	255 509 510 
3	117 508 509 
3	231 507 508 
3	112 506 507 
3	167 505 506 
3	173 504 505 
3	211 503 504 
3	149 502 503 
1	502 
3	5 90 501 
3	255 500 501 
3	27 499 500 
1	499 
3	66 79 498 
3	6 497 498 
3	113 496 497 
3	250 495 496 
3	16 494 495 
3	84 493 494 
3	91 492 493 
3	170 491 492 
3	232 490 491 
3	123 489 490 
3	255 488 489 
3	112 487 488 
3	95 486 487 
3	5 485 486 
3	44 484 485 
3	55 483 484 
3	188 482 483 
3	258 481 482 
3	228 480 481 
1	480 
3	78 227 479 
3	199 478 479 
3	260 477 478 
1	477 
3	102 124 476 
3	1 475 476 
3	207 474 475 
3	177 473 474 
3	155 472 473 
3	199 471 472 
3	185 470 471 
3	95 469 470 
3	104 468 469 
3	260 467 468 
3	244 466 467 
3	189 465 466 
3	248 464 465 
3	163 463 464 
3	250 462 463 
3	87 461 462 
3	175 460 461 
3	58 459 460 
3	169 458 459 
3	225 457 458 
3	188 456 457 
3	241 455 456 
3	15 454 455 
3	220 453 454 
3	191 452 453 
3	139 451 452 
3	222 450 451 
3	208 449 450 
3	92 448 449 
3	204 447 448 
3	12 446 447 
3	8 445 446 
3	48 444 445 
3	160 443 444 
3	117 442 443 
3	231 441 442 
3	112 440 441 
3	167 439 440 
3	173 438 439 
3	149 437 438 
1	437 
3	202 207 436 
3	64 435 436 
3	85 434 435 
3	233 433 434 
3	111 432 433 
3	40 431 432 
3	45 430 431 
3	260 429 430 
3	86 428 429 
3	248 427 428 
3	178 426 427 
3	150 425 426 
3	105 424 425 
3	33 423 424 
3	131 422 423 
3	119 421 422 
3	24 420 421 
3	203 419 420 
3	225 418 419 
3	241 417 418 
3	220 416 417 
3	191 415 416 
3	145 414 415 
3	240 413 414 
3	229 412 413 
3	75 411 412 
3	236 410 411 
3	222 409 410 
3	90 408 409 
3	109 407 408 
3	93 406 407 
3	227 405 406 
3	84 404 405 
3	50 403 404 
3	14 402 403 
3	99 401 402 
3	143 400 401 
3	224 399 400 
3	100 398 399 
3	232 397 398 
3	193 396 397 
3	38 395 396 
3	68 394 395 
3	199 393 394 
3	103 392 393 
3	257 391 392 
3	82 390 391 
3	71 389 390 
3	104 388 389 
3	46 387 388 
3	244 386 387 
3	132 385 386 
3	152 384 385 
3	237 383 384 
3	78 382 383 
3	79 381 382 
3	163 380 381 
3	69 379 380 
3	11 378 379 
3	133 377 378 
3	59 376 377 
3	58 375 376 
3	249 374 375 
3	219 373 374 
3	212 372 373 
3	186 371 372 
3	21 370 371 
3	55 369 370 
3	5 368 369 
3	188 367 368 
3	53 366 367 
3	140 365 366 
3	66 364 365 
3	192 363 364 
3	19 362 363 
3	91 361 362 
3	116 360 361 
3	215 359 360 
3	239 358 359 
3	204 357 358 
3	83 356 357 
3	8 355 356 
3	168 354 355 
3	61 353 354 
3	54 352 353 
3	166 351 352 
3	117 350 351 
3	112 349 350 
3	246 348 349 
3	96 347 348 
3	211 346 347 
3	184 345 346 
3	124 344 345 
3	130 343 344 
3	102 342 343 
3	51 341 342 
3	1 340 341 
3	177 339 340 
3	245 338 339 
3	60 337 338 
3	36 336 337 
3	185 335 336 
3	242 334 335 
3	44 333 334 
3	209 332 333 
3	251 331 332 
3	27 330 331 
3	228 329 330 
3	250 328 329 
3	165 327 328 
3	170 326 327 
3	87 325 326 
3	201 324 325 
3	122 323 324 
3	230 322 323 
3	197 321 322 
3	235 320 321 
3	15 319 320 
3	65 318 319 
3	114 317 318 
3	254 316 317 
3	171 315 316 
3	32 314 315 
3	125 313 314 
3	218 312 313 
3	92 311 312 
3	153 310 311 
3	196 309 310 
3	179 308 309 
3	147 307 308 
3	144 306 307 
3	160 305 306 
3	123 304 305 
3	77 303 304 
3	255 302 303 
3	194 301 302 
3	231 300 301 
3	206 299 300 
3	110 298 299 
3	221 297 298 
3	126 296 297 
3	155 295 296 
3	261 294 295 
3	205 293 294 
3	3 292 293 
3	22 291 292 
3	31 290 291 
3	25 289 290 
3	95 288 289 
3	190 287 288 
3	189 286 287 
3	16 285 286 
3	175 284 285 
3	256 283 284 
3	213 282 283 
3	172 281 282 
3	169 280 281 
3	146 279 280 
3	113 278 279 
3	259 277 278 
3	139 276 277 
3	80 275 276 
3	47 274 275 
3	42 273 274 
3	208 272 273 
3	13 271 272 
3	12 270 271 
3	6 269 270 
3	48 268 269 
3	23 267 268 
3	167 266 267 
3	173 265 266 
3	56 264 265 
3	149 263 264 
1	263 
1	202 
1	74 
1	207 
1	161 
1	151 
1	64 
1	85 
1	233 
1	40 
1	111 
1	18 
1	45 
1	260 
1	195 
1	81 
1	216 
1	86 
1	248 
1	150 
1	178 
1	158 
1	101 
1	105 
1	33 
1	119 
1	131 
1	24 
1	203 
1	225 
1	241 
1	220 
1	191 
1	240 
1	145 
1	121 
1	229 
1	75 
1	236 
1	90 
1	222 
1	35 
1	109 
1	30 
1	9 
1	174 
1	49 
1	93 
1	120 
1	227 
1	84 
1	50 
1	14 
1	253 
1	138 
1	252 
1	198 
1	99 
1	89 
1	143 
1	224 
1	258 
1	100 
1	232 
1	193 
1	38 
1	68 
1	199 
1	103 
1	257 
1	82 
1	238 
1	71 
1	104 
1	76 
1	46 
1	217 
1	234 
1	244 
1	132 
1	148 
1	152 
1	237 
1	79 
1	78 
1	163 
1	69 
1	127 
1	11 
1	133 
1	58 
1	59 
1	249 
1	219 
1	212 
1	226 
1	72 
1	186 
1	28 
1	21 
1	55 
1	5 
1	188 
1	97 
1	53 
1	140 
1	66 
1	192 
1	91 
1	19 
1	181 
1	134 
1	154 
1	116 
1	215 
1	39 
1	239 
1	204 
1	83 
1	8 
1	168 
1	61 
1	54 
1	136 
1	166 
1	117 
1	112 
1	246 
1	67 
1	52 
1	96 
1	211 
1	184 
1	29 
1	94 
1	124 
1	187 
1	102 
1	130 
1	1 
1	51 
1	177 
1	88 
1	245 
1	128 
1	60 
1	70 
1	36 
1	185 
1	242 
1	4 
1	44 
1	209 
1	251 
1	27 
1	41 
1	200 
1	43 
1	228 
1	107 
1	250 
1	165 
1	170 
1	87 
1	63 
1	201 
1	247 
1	10 
1	122 
1	230 
1	162 
1	197 
1	20 
1	235 
1	15 
1	65 
1	164 
1	114 
1	254 
1	171 
1	26 
1	32 
1	125 
1	218 
1	92 
1	98 
1	153 
1	182 
1	196 
1	34 
1	179 
1	7 
1	147 
1	144 
1	142 
1	123 
1	160 
1	77 
1	255 
1	137 
1	194 
1	231 
1	180 
1	262 
1	206 
1	110 
1	221 
1	126 
1	155 
1	261 
1	183 
1	135 
1	205 
1	108 
1	3 
1	118 
1	22 
1	31 
1	25 
1	95 
1	129 
1	190 
1	62 
1	223 
1	189 
1	16 
1	106 
1	175 
1	256 
1	213 
1	115 
1	172 
1	169 
1	146 
1	157 
1	2 
1	73 
1	17 
1	113 
1	259 
1	139 
1	80 
1	47 
1	210 
1	42 
1	208 
1	13 
1	243 
1	12 
1	159 
1	6 
1	214 
1	48 
1	57 
1	0 
1	37 
1	23 
1	176 
1	167 
1	173 
1	56 
1	156 
1	141 
1	149 
0	

8
 1 0 0.89 0.11 0.5 0.5 0.445 0.555
8
 1 0 0 1 0.5 0 0.5 1
8
 1 0 0 1 0.89 0 0.11 1
8
 1 0 0 1 0 0 1 1
8
 1 0 0 1 0.5 0 0.5 1
8
 1 0 0 1 0.5 0 0.5 1
8
 1 0 0 1 0.5 0 0.5 1
8
 1 0 0 1 0.4 0 0.6 1
8
 1 0 0 1 0.1 0 0.9 1
8
 1 0 0 1 0.5 0 0.5 1
8
 1 0 0 1 0.01 0 0.99 1
8
 1 0 0 1 0.5 0 0.5 1
8
 1 0 0 1 0.9 0 0.1 1
8
 1 0 0 1 0.01 0 0.99 1
8
 1 0 0 1 0.1 0 0.9 1
8
 1 0 0 1 0.01 0 0.99 1
8
 1 0 0 1 0.89 0 0.11 1
8
 1 0 0 1 0.5 0 0.5 1
8
 1 0 0 1 0.5 0 0.5 1
8
 1 0 0 1 0.4 0 0.6 1
8
 1 0 0 1 0.63 0 0.37 1
8
 1 0 0 1 0.8 0 0.2 1
8
 1 0 0 1 0.89 0 0.11 1
8
 1 0 0 1 0.89 0 0.11 1
8
 1 0 0 1 0.01 0 0.99 1
8
 1 0 0 1 0.5 0 0.5 1
8
 1 0 0 1 0.95 0 0.05 1
8
 1 0 0 1 0.89 0 0.11 1
8
 1 0 0 1 0.5 0 0.5 1
8
 1 0 0 1 0.5 0 0.5 1
8
 1 0 0 1 0.7 0 0.3 1
8
 1 0 0 1 0.5 0 0.5 1
8
 1 0 0 1 0.2 0 0.8 1
8
 1 0 0 1 0.89 0 0.11 1
8
 1 0 0 1 0.5 0 0.5 1
8
 1 0 0 1 0.89 0 0.11 1
8
 1 0 0 1 0.09 0 0.91 1
8
 1 0 0 1 0.09 0 0.91 1
8
 1 0 0 1 0.5 0 0.5 1
8
 1 0 0 1 0.89 0 0.11 1
8
 1 0 0 1 0.9 0 0.1 1
8
 1 0 0 1 0.5 0 0.5 1
8
 1 0 0 1 0.5 0 0.5 1
8
 1 0 0 1 0.89 0 0.11 1
8
 1 0 0 1 0.5 0 0.5 1
8
 1 0 0 1 0.5 0 0.5 1
8
 1 0 0 1 0.89 0 0.11 1
8
 1 0 0 1 0.5 0 0.5 1
8
 1 0 0 1 0.89 0 0.11 1
8
 1 0 0 1 0.5 0 0.5 1
8
 1 0 0 1 0.5 0 0.5 1
8
 1 0 0 1 0.5 0 0.5 1
8
 1 0 0 1 0 0 1 1
8
 1 0 0 1 0.1 0 0.9 1
8
 1 0 0 1 0.5 0 0.5 1
8
 1 0 0 1 0.5 0 0.5 1
8
 1 0 0 1 0.89 0 0.11 1
8
 1 0 0 1 0.89 0 0.11 1
8
 1 0 0 1 0.2 0 0.8 1
8
 1 0 0 1 0.4 0 0.6 1
8
 1 0 0 1 0.4 0 0.6 1
8
 1 0 0 1 0.89 0 0.11 1
8
 1 0 0 1 0.01 0 0.99 1
2
 0.03 1
8
 1 0 0.2 0.8 0.6 0.4 0.12 0.88
8
 1 0 0 1 0.4 0 0.6 1
8
 1 0 0 1 0.5 0 0.5 1
8
 1 0 0 1 0.4 0 0.6 1
8
 1 0 0 1 0.5 0 0.5 1
8
 1 0 0 1 0.4 0 0.6 1
8
 1 0 0 1 0.1 0 0.9 1
8
 1 0 0 1 0.5 0 0.5 1
8
 1 0 0 1 0.4 0 0.6 1
8
 1 0 0 1 0.5 0 0.5 1
8
 1 0 0 1 0.2 0 0.8 1
8
 1 0 0 1 0.5 0 0.5 1
8
 1 0 0 1 0.75 0 0.25 1
8
 1 0 0 1 0.2 0 0.8 1
8
 1 0 0 1 0.1 0 0.9 1
8
 1 0 0 1 0.5 0 0.5 1
8
 1 0 0 1 0.5 0 0.5 1
8
 1 0 0 1 0.2 0 0.8 1
8
 1 0 0 1 0.9 0 0.1 1
8
 1 0 0 1 0.5 0 0.5 1
8
 1 0 0 1 0.4 0 0.6 1
8
 1 0 0 1 0.5 0 0.5 1
8
 1 0 0 1 0.2 0 0.8 1
8
 1 0 0 1 0.5 0 0.5 1
8
 1 0 0 1 0.5 0 0.5 1
8
 1 0 0 1 0.5 0 0.5 1
8
 1 0 0 1 0.4 0 0.6 1
8
 1 0 0 1 0.89 0 0.11 1
8
 1 0 0 1 0.5 0 0.5 1
8
 1 0 0 1 0.5 0 0.5 1
8
 1 0 0 1 0.9 0 0.1 1
8
 1 0 0 1 0.1 0 0.9 1
8
 1 0 0 1 0.1 0 0.9 1
8
 1 0 0 1 0.4 0 0.6 1
8
 1 0 0 1 0.2 0 0.8 1
8
 1 0 0 1 0.4 0 0.6 1
8
 1 0 0 1 0.5 0 0.5 1
8
 1 0 0 1 0.2 0 0.8 1
8
 1 0 0 1 0.2 0 0.8 1
8
 1 0 0 1 0.2 0 0.8 1
8
 1 0 0 1 0.4 0 0.6 1
8
 1 0 0 1 0.5 0 0.5 1
8
 1 0 0 1 0.1 0 0.9 1
8
 1 0 0 1 0.05 0 0.95 1
8
 1 0 0 1 0.6 0 0.4 1
8
 1 0 0 1 0.5 0 0.5 1
8
 1 0 0 1 0.5 0 0.5 1
2
 0.03 1
8
 1 0 0.01 0.99 0.3 0.7 0.003 0.997
2
 0.03 1
8
 1 0 0.1 0.9 0 1 0 1
2
 0.03 1
8
 1 0 0.57 0.43 0.5 0.5 0.285 0.715
8
 1 0 0 1 0.1 0 0.9 1
8
 1 0 0 1 0 0 1 1
8
 1 0 0 1 0.09 0 0.91 1
8
 1 0 0 1 0.5 0 0.5 1
8
 1 0 0 1 0.1 0 0.9 1
8
 1 0 0 1 0 0 1 1
8
 1 0 0 1 0.5 0 0.5 1
8
 1 0 0 1 0.5 0 0.5 1
8
 1 0 0 1 0.5 0 0.5 1
8
 1 0 0 1 0 0 1 1
8
 1 0 0 1 0.01 0 0.99 1
8
 1 0 0 1 0.5 0 0.5 1
8
 1 0 0 1 0.5 0 0.5 1
8
 1 0 0 1 0 0 1 1
8
 1 0 0 1 0.4 0 0.6 1
8
 1 0 0 1 0.1 0 0.9 1
8
 1 0 0 1 0.01 0 0.99 1
2
 0.03 1
8
 1 0 0 1 0 1 0 1
8
 1 0 0 1 0 0 1 1
8
 1 0 0 1 0 0 1 1
8
 1 0 0 1 0 0 1 1
8
 1 0 0 1 0 0 1 1
8
 1 0 0 1 0 0 1 1
8
 1 0 0 1 0 0 1 1
8
 1 0 0 1 0 0 1 1
8
 1 0 0 1 0 0 1 1
8
 1 0 0 1 0 0 1 1
8
 1 0 0 1 0 0 1 1
8
 1 0 0 1 0 0 1 1
8
 1 0 0 1 0 0 1 1
8
 1 0 0 1 0 0 1 1
8
 1 0 0 1 0 0 1 1
8
 1 0 0 1 0 0 1 1
8
 1 0 0 1 0 0 1 1
8
 1 0 0 1 0 0 1 1
8
 1 0 0 1 0 0 1 1
8
 1 0 0 1 0 0 1 1
8
 1 0 0 1 0 0 1 1
8
 1 0 0 1 0 0 1 1
8
 1 0 0 1 0 0 1 1
8
 1 0 0 1 0 0 1 1
8
 1 0 0 1 0 0 1 1
8
 1 0 0 1 0 0 1 1
8
 1 0 0 1 0 0 1 1
8
 1 0 0 1 0 0 1 1
8
 1 0 0 1 0 0 1 1
8
 1 0 0 1 0 0 1 1
8
 1 0 0 1 0 0 1 1
8
 1 0 0 1 0 0 1 1
8
 1 0 0 1 0 0 1 1
8
 1 0 0 1 0 0 1 1
8
 1 0 0 1 0 0 1 1
8
 1 0 0 1 0 0 1 1
8
 1 0 0 1 0 0 1 1
8
 1 0 0 1 0 0 1 1
8
 1 0 0 1 0 0 1 1
8
 1 0 0 1 0 0 1 1
8
 1 0 0 1 0 0 1 1
8
 1 0 0 1 0 0 1 1
8
 1 0 0 1 0 0 1 1
8
 1 0 0 1 0 0 1 1
8
 1 0 0 1 0 0 1 1
8
 1 0 0 1 0 0 1 1
8
 1 0 0 1 0 0 1 1
8
 1 0 0 1 0 0 1 1
8
 1 0 0 1 0 0 1 1
8
 1 0 0 1 0 0 1 1
8
 1 0 0 1 0 0 1 1
8
 1 0 0 1 0 0 1 1
8
 1 0 0 1 0 0 1 1
8
 1 0 0 1 0 0 1 1
8
 1 0 0 1 0 0 1 1
8
 1 0 0 1 0 0 1 1
8
 1 0 0 1 0 0 1 1
8
 1 0 0 1 0 0 1 1
8
 1 0 0 1 0 0 1 1
2
 0.03 1
8
 1 0 0.3 0.7 0.5 0.5 0.15 0.85
8
 1 0 0 1 0 0 1 1
8
 1 0 0 1 0.01 0 0.99 1
2
 0.03 1
8
 1 0 0.57 0.43 0.5 0.5 0.285 0.715
8
 1 0 0 1 0.1 0 0.9 1
8
 1 0 0 1 0.01 0 0.99 1
8
 1 0 0 1 0.09 0 0.91 1
8
 1 0 0 1 0.5 0 0.5 1
8
 1 0 0 1 0.1 0 0.9 1
8
 1 0 0 1 0.5 0 0.5 1
8
 1 0 0 1 0.01 0 0.99 1
8
 1 0 0 1 0.5 0 0.5 1
8
 1 0 0 1 0.5 0 0.5 1
8
 1 0 0 1 0.05 0 0.95 1
8
 1 0 0 1 0.01 0 0.99 1
8
 1 0 0 1 0.5 0 0.5 1
8
 1 0 0 1 0.5 0 0.5 1
8
 1 0 0 1 0.01 0 0.99 1
8
 1 0 0 1 0.4 0 0.6 1
8
 1 0 0 1 0.1 0 0.9 1
8
 1 0 0 1 0.01 0 0.99 1
8
 1 0 0 1 0.2 0 0.8 1
2
 0.03 1
8
 1 0 0 1 0 1 0 1
8
 1 0 0 1 0 0 1 1
8
 1 0 0 1 0 0 1 1
2
 0.03 1
8
 1 0 0.05 0.95 0.05 0.95 0.0025 0.9975
8
 1 0 0 1 0.05 0 0.95 1
8
 1 0 0 1 0.05 0 0.95 1
8
 1 0 0 1 0.05 0 0.95 1
8
 1 0 0 1 0.05 0 0.95 1
8
 1 0 0 1 0.05 0 0.95 1
8
 1 0 0 1 0.05 0 0.95 1
8
 1 0 0 1 0.05 0 0.95 1
8
 1 0 0 1 0.05 0 0.95 1
8
 1 0 0 1 0.05 0 0.95 1
8
 1 0 0 1 0.05 0 0.95 1
8
 1 0 0 1 0.05 0 0.95 1
8
 1 0 0 1 0.05 0 0.95 1
8
 1 0 0 1 0.05 0 0.95 1
8
 1 0 0 1 0.05 0 0.95 1
8
 1 0 0 1 0.05 0 0.95 1
8
 1 0 0 1 0.05 0 0.95 1
8
 1 0 0 1 0.05 0 0.95 1
8
 1 0 0 1 0.05 0 0.95 1
8
 1 0 0 1 0.05 0 0.95 1
8
 1 0 0 1 0.05 0 0.95 1
8
 1 0 0 1 0.05 0 0.95 1
8
 1 0 0 1 0.05 0 0.95 1
8
 1 0 0 1 0.05 0 0.95 1
8
 1 0 0 1 0.05 0 0.95 1
8
 1 0 0 1 0.05 0 0.95 1
8
 1 0 0 1 0.05 0 0.95 1
8
 1 0 0 1 0.05 0 0.95 1
8
 1 0 0 1 0.05 0 0.95 1
8
 1 0 0 1 0.05 0 0.95 1
8
 1 0 0 1 0.05 0 0.95 1
8
 1 0 0 1 0.05 0 0.95 1
8
 1 0 0 1 0.05 0 0.95 1
8
 1 0 0 1 0.05 0 0.95 1
8
 1 0 0 1 0.05 0 0.95 1
8
 1 0 0 1 0.05 0 0.95 1
8
 1 0 0 1 0.05 0 0.95 1
8
 1 0 0 1 0.05 0 0.95 1
8
 1 0 0 1 0.05 0 0.95 1
8
 1 0 0 1 0.05 0 0.95 1
2
 0.03 1
8
 1 0 0 1 0.9 0.1 0 1
8
 1 0 0 1 0.2 0 0.8 1
8
 1 0 0 1 0.4 0 0.6 1
8
 1 0 0 1 0.5 0 0.5 1
8
 1 0 0 1 0 0 1 1
8
 1 0 0 1 0.9 0 0.1 1
8
 1 0 0 1 0.5 0 0.5 1
8
 1 0 0 1 0.89 0 0.11 1
8
 1 0 0 1 0.5 0 0.5 1
8
 1 0 0 1 0 0 1 1
8
 1 0 0 1 0.89 0 0.11 1
8
 1 0 0 1 0.5 0 0.5 1
8
 1 0 0 1 0.2 0 0.8 1
8
 1 0 0 1 0.4 0 0.6 1
8
 1 0 0 1 0.1 0 0.9 1
8
 1 0 0 1 0.5 0 0.5 1
8
 1 0 0 1 0.5 0 0.5 1
8
 1 0 0 1 0.1 0 0.9 1
8
 1 0 0 1 0 0 1 1
8
 1 0 0 1 0.5 0 0.5 1
8
 1 0 0 1 0.01 0 0.99 1
8
 1 0 0 1 0 0 1 1
8
 1 0 0 1 0 0 1 1
8
 1 0 0 1 0 0 1 1
8
 1 0 0 1 0.5 0 0.5 1
8
 1 0 0 1 0.9 0 0.1 1
8
 1 0 0 1 0.5 0 0.5 1
8
 1 0 0 1 0 0 1 1
8
 1 0 0 1 0.5 0 0.5 1
8
 1 0 0 1 0.9 0 0.1 1
8
 1 0 0 1 0.5 0 0.5 1
8
 1 0 0 1 0.1 0 0.9 1
8
 1 0 0 1 0 0 1 1
8
 1 0 0 1 0.1 0 0.9 1
8
 1 0 0 1 0.5 0 0.5 1
8
 1 0 0 1 0.9 0 0.1 1
8
 1 0 0 1 0.5 0 0.5 1
8
 1 0 0 1 0.5 0 0.5 1
8
 1 0 0 1 0.9 0 0.1 1
8
 1 0 0 1 0.09 0 0.91 1
8
 1 0 0 1 0.5 0 0.5 1
8
 1 0 0 1 0.1 0 0.9 1
8
 1 0 0 1 0.5 0 0.5 1
8
 1 0 0 1 0.5 0 0.5 1
8
 1 0 0 1 0.9 0 0.1 1
8
 1 0 0 1 0.09 0 0.91 1
8
 1 0 0 1 0.5 0 0.5 1
8
 1 0 0 1 0.5 0 0.5 1
8
 1 0 0 1 0 0 1 1
8
 1 0 0 1 0.5 0 0.5 1
8
 1 0 0 1 0 0 1 1
8
 1 0 0 1 0 0 1 1
8
 1 0 0 1 0.5 0 0.5 1
8
 1 0 0 1 0.1 0 0.9 1
8
 1 0 0 1 0.5 0 0.5 1
8
 1 0 0 1 0.57 0 0.43 1
8
 1 0 0 1 0 0 1 1
8
 1 0 0 1 0 0 1 1
8
 1 0 0 1 0.5 0 0.5 1
8
 1 0 0 1 0.5 0 0.5 1
8
 1 0 0 1 0.9 0 0.1 1
8
 1 0 0 1 0 0 1 1
8
 1 0 0 1 0.5 0 0.5 1
8
 1 0 0 1 0.1 0 0.9 1
8
 1 0 0 1 0.5 0 0.5 1
8
 1 0 0 1 0.1 0 0.9 1
8
 1 0 0 1 0.5 0 0.5 1
8
 1 0 0 1 0.4 0 0.6 1
8
 1 0 0 1 0.5 0 0.5 1
8
 1 0 0 1 0 0 1 1
8
 1 0 0 1 0.5 0 0.5 1
8
 1 0 0 1 0.9 0 0.1 1
8
 1 0 0 1 0.5 0 0.5 1
8
 1 0 0 1 0.89 0 0.11 1
8
 1 0 0 1 0.5 0 0.5 1
8
 1 0 0 1 0.5 0 0.5 1
8
 1 0 0 1 0.5 0 0.5 1
8
 1 0 0 1 0.4 0 0.6 1
8
 1 0 0 1 0.5 0 0.5 1
8
 1 0 0 1 0 0 1 1
8
 1 0 0 1 0.1 0 0.9 1
8
 1 0 0 1 0.6 0 0.4 1
8
 1 0 0 1 0.5 0 0.5 1
8
 1 0 0 1 0.1 0 0.9 1
8
 1 0 0 1 0.4 0 0.6 1
8
 1 0 0 1 0.5 0 0.5 1
8
 1 0 0 1 0 0 1 1
8
 1 0 0 1 0 0 1 1
8
 1 0 0 1 0.1 0 0.9 1
8
 1 0 0 1 0.59 0 0.41 1
8
 1 0 0 1 0 0 1 1
8
 1 0 0 1 0.4 0 0.6 1
8
 1 0 0 1 0 0 1 1
8
 1 0 0 1 0.5 0 0.5 1
8
 1 0 0 1 0.9 0 0.1 1
8
 1 0 0 1 0.5 0 0.5 1
8
 1 0 0 1 0 0 1 1
8
 1 0 0 1 0 0 1 1
8
 1 0 0 1 0.9 0 0.1 1
8
 1 0 0 1 0.4 0 0.6 1
8
 1 0 0 1 0.5 0 0.5 1
8
 1 0 0 1 0.1 0 0.9 1
8
 1 0 0 1 0.4 0 0.6 1
8
 1 0 0 1 0 0 1 1
8
 1 0 0 1 0.5 0 0.5 1
8
 1 0 0 1 0.09 0 0.91 1
8
 1 0 0 1 0 0 1 1
8
 1 0 0 1 0 0 1 1
8
 1 0 0 1 0 0 1 1
8
 1 0 0 1 0.89 0 0.11 1
8
 1 0 0 1 0 0 1 1
8
 1 0 0 1 0 0 1 1
8
 1 0 0 1 0.5 0 0.5 1
8
 1 0 0 1 0.5 0 0.5 1
8
 1 0 0 1 0.5 0 0.5 1
8
 1 0 0 1 0.5 0 0.5 1
8
 1 0 0 1 0.5 0 0.5 1
8
 1 0 0 1 0 0 1 1
8
 1 0 0 1 0.5 0 0.5 1
8
 1 0 0 1 0.4 0 0.6 1
8
 1 0 0 1 0.7 0 0.3 1
8
 1 0 0 1 0.5 0 0.5 1
8
 1 0 0 1 0.89 0 0.11 1
8
 1 0 0 1 0.5 0 0.5 1
8
 1 0 0 1 0.9 0 0.1 1
8
 1 0 0 1 0 0 1 1
8
 1 0 0 1 0.9 0 0.1 1
8
 1 0 0 1 0.5 0 0.5 1
8
 1 0 0 1 0.5 0 0.5 1
8
 1 0 0 1 0 0 1 1
8
 1 0 0 1 0.75 0 0.25 1
8
 1 0 0 1 0 0 1 1
8
 1 0 0 1 0.09 0 0.91 1
8
 1 0 0 1 0.5 0 0.5 1
8
 1 0 0 1 0 0 1 1
8
 1 0 0 1 0.5 0 0.5 1
8
 1 0 0 1 0 0 1 1
8
 1 0 0 1 0.9 0 0.1 1
8
 1 0 0 1 0.7 0 0.3 1
8
 1 0 0 1 0.4 0 0.6 1
8
 1 0 0 1 0.1 0 0.9 1
8
 1 0 0 1 0 0 1 1
8
 1 0 0 1 0.6 0 0.4 1
8
 1 0 0 1 0.5 0 0.5 1
8
 1 0 0 1 0.4 0 0.6 1
8
 1 0 0 1 0.9 0 0.1 1
8
 1 0 0 1 0.5 0 0.5 1
8
 1 0 0 1 0.9 0 0.1 1
8
 1 0 0 1 0 0 1 1
8
 1 0 0 1 0 0 1 1
8
 1 0 0 1 0 0 1 1
8
 1 0 0 1 0.09 0 0.91 1
8
 1 0 0 1 0 0 1 1
8
 1 0 0 1 0.9 0 0.1 1
8
 1 0 0 1 0.5 0 0.5 1
8
 1 0 0 1 0 0 1 1
8
 1 0 0 1 0 0 1 1
8
 1 0 0 1 0.9 0 0.1 1
8
 1 0 0 1 0 0 1 1
8
 1 0 0 1 0.9 0 0.1 1
8
 1 0 0 1 0 0 1 1
8
 1 0 0 1 0.05 0 0.95 1
8
 1 0 0 1 0.5 0 0.5 1
8
 1 0 0 1 0.5 0 0.5 1
8
 1 0 0 1 0 0 1 1
8
 1 0 0 1 0.5 0 0.5 1
8
 1 0 0 1 0 0 1 1
8
 1 0 0 1 0.1 0 0.9 1
8
 1 0 0 1 0 0 1 1
8
 1 0 0 1 0.5 0 0.5 1
8
 1 0 0 1 0 0 1 1
8
 1 0 0 1 0 0 1 1
8
 1 0 0 1 0.9 0 0.1 1
8
 1 0 0 1 0.01 0 0.99 1
2
 0.03 1
2
 0.9995 0.0005
2
 0.9999 0.0001
2
 0.99995 5e-05
2
 0.9996 0.0004
2
 0.99998 2e-05
2
 0.99999 1e-05
2
 0.9999 0.0001
2
 0.99999 1e-05
2
 0.99975 0.00025
2
 0.999 0.001
2
 0.99999 1e-05
2
 0.99999 1e-05
2
 0.99995 5e-05
2
 0.99989 0.00011
2
 0.99999 1e-05
2
 0.9998 0.0002
2
 0.99999 1e-05
2
 0.9999 0.0001
2
 0.99975 0.00025
2
 0.9999 0.0001
2
 0.999999 1e-06
2
 0.9999 0.0001
2
 0.99995 5e-05
2
 0.9999 0.0001
2
 0.99989 0.00011
2
 0.999999 1e-06
2
 0.9999 0.0001
2
 0.9999 0.0001
2
 0.9999 0.0001
2
 0.99998 2e-05
2
 0.99999 1e-05
2
 0.9999 0.0001
2
 0.998 0.002
2
 0.99995 5e-05
2
 0.99991 9e-05
2
 0.99974 0.00026
2
 0.999998 2e-06
2
 0.99989 0.00011
2
 0.9999 0.0001
2
 0.99995 5e-05
2
 0.9995 0.0005
2
 0.99996 4e-05
2
 0.9999 0.0001
2
 0.99946 0.00054
2
 0.9998 0.0002
2
 0.9999 0.0001
2
 0.99981 0.00019
2
 0.9999 0.0001
2
 0.9999 0.0001
2
 0.99998 2e-05
2
 0.9999 0.0001
2
 0.9999 0.0001
2
 0.99992 8e-05
2
 0.99995 5e-05
2
 0.9999 0.0001
2
 0.9999 0.0001
2
 0.99992 8e-05
2
 0.9999 0.0001
2
 0.9999 0.0001
2
 0.99999 1e-05
2
 0.99998 2e-05
2
 0.9996 0.0004
2
 0.99996 4e-05
2
 0.99995 5e-05
2
 0.9999 0.0001
2
 0.9995 0.0005
2
 0.99999 1e-05
2
 0.999973 2.7e-05
2
 0.99995 5e-05
2
 0.99999 1e-05
2
 0.9999 0.0001
2
 0.9999 0.0001
2
 0.9999 0.0001
2
 0.9999 0.0001
2
 0.9991 0.0009
2
 0.999999 1e-06
2
 0.9999 0.0001
2
 0.9999 0.0001
2
 0.9995 0.0005
2
 0.99995 5e-05
2
 0.99995 5e-05
2
 0.9999 0.0001
2
 0.9999 0.0001
2
 0.99985 0.00015
2
 0.9996 0.0004
2
 0.99998 2e-05
2
 0.9999 0.0001
2
 0.99999 1e-05
2
 0.9999 0.0001
2
 0.9999 0.0001
2
 0.9998 0.0002
2
 0.9995 0.0005
2
 0.99999 1e-05
2
 0.9995 0.0005
2
 0.99922 0.00078
2
 0.9994 0.0006
2
 0.9998 0.0002
2
 0.9999 0.0001
2
 0.9991 0.0009
2
 0.9998 0.0002
2
 0.99995 5e-05
2
 0.9998 0.0002
2
 0.99996 4e-05
2
 0.9998 0.0002
2
 0.9994 0.0006
2
 0.99999 1e-05
2
 0.9999 0.0001
2
 0.9999 0.0001
2
 0.9995 0.0005
2
 0.9999 0.0001
2
 0.99998 2e-05
2
 0.9998 0.0002
2
 0.9997 0.0003
2
 0.9999 0.0001
2
 0.9999 0.0001
2
 0.99984 0.00016
2
 0.99993 7e-05
2
 0.9996 0.0004
2
 0.99997 3e-05
2
 0.999 0.001
2
 0.9999 0.0001
2
 0.998 0.002
2
 0.9996 0.0004
2
 0.9999 0.0001
2
 0.9999 0.0001
2
 0.99998 2e-05
2
 0.99995 5e-05
2
 0.99996 4e-05
2
 0.9999 0.0001
2
 0.9995 0.0005
2
 0.9999 0.0001
2
 0.9982 0.0018
2
 0.9999 0.0001
2
 0.9997 0.0003
2
 0.9999 0.0001
2
 0.9999 0.0001
2
 0.99985 0.00015
2
 0.99996 4e-05
2
 0.9999 0.0001
2
 0.9999 0.0001
2
 0.9999 0.0001
2
 0.9995 0.0005
2
 0.999977 2.291e-05
2
 0.9999 0.0001
2
 0.998 0.002
2
 0.999999 1e-06
2
 0.99989 0.00011
2
 0.99995 5e-05
2
 0.9999 0.0001
2
 0.9995 0.0005
2
 0.99975 0.00025
2
 0.9996 0.0004
2
 0.99995 5e-05
2
 0.9985 0.0015
2
 0.9999 0.0001
2
 0.9995 0.0005
2
 0.9999 0.0001
2
 0.99987 0.00013
2
 0.999999 6.2e-07
2
 0.99995 5e-05
2
 0.99999 1e-05
2
 0.9999 0.0001
2
 0.99998 2e-05
2
 0.9999 0.0001
2
 1 1.2e-07
2
 0.99996 4e-05
2
 0.994 0.006
2
 0.99995 5e-05
2
 0.9999 0.0001
2
 0.999997 2.82e-06
2
 0.99998 2e-05
2
 0.99999 1e-05
2
 0.99999 1e-05
2
 0.9999 0.0001
2
 0.9999 0.0001
2
 0.9999 0.0001
2
 0.999996 4e-06
2
 1 1.6e-07
2
 0.9999 0.0001
2
 0.9994 0.0006
2
 0.9999 0.0001
2
 0.9999 0.0001
2
 0.999907 9.332e-05
2
 0.9999 0.0001
2
 0.999 0.001
2
 0.9994 0.0006
2
 0.99989 0.00011
2
 0.9999 0.0001
2
 0.9999 0.0001
2
 0.999969 3.12e-05
2
 0.9999 0.0001
2
 0.99995 5e-05
2
 0.999992 8e-06
2
 0.99975 0.00025
2
 0.99975 0.00025
2
 0.9999 0.0001
2
 0.9999 0.0001
2
 0.99882 0.00118
2
 0.9999 0.0001
2
 0.99999 1e-05
2
 0.9999 0.0001
2
 0.999 0.001
2
 0.9999 0.0001
2
 0.99999 1e-05
2
 0.9998 0.0002
2
 0.9999 0.0001
2
 0.9999 0.0001
2
 0.9999 0.0001
2
 0.999 0.001
2
 0.99995 5e-05
2
 0.9999 0.0001
2
 0.9995 0.0005
2
 0.9999 0.0001
2
 0.99991 9e-05
2
 0.99999 1e-05
2
 0.99991 9e-05
2
 0.9999 0.0001
2
 0.9999 0.0001
2
 0.99995 5e-05
2
 0.999999 1e-06
2
 0.99997 3e-05
2
 0.9999 0.0001
2
 1 1e-07
2
 0.99995 5e-05
2
 0.99994 6e-05
2
 0.9979 0.0021
2
 0.9999 0.0001
2
 0.9998 0.0002
2
 0.9999 0.0001
2
 0.999999 1e-06
2
 0.99997 3e-05
2
 0.99997 3e-05
2
 0.9999 0.0001
2
 0.9999 0.0001
2
 0.999999 1e-06
2
 0.99992 8e-05
2
 0.9997 0.0003
2
 0.99989 0.00011
2
 0.9995 0.0005
2
 0.9999 0.0001
2
 0.9999 0.0001
2
 0.9999 0.0001
2
 0.9999 0.0001
2
 0.99997 3e-05
2
 0.9999 0.0001
2
 0.99999 1e-05
2
 0.9999 0.0001
2
 0.9999 0.0001
2
 0.9999 0.0001
2
 0.99996 4e-05
2
 0.9995 0.0005
2
 0.9999 0.0001
2
 0.9999 0.0001
2
 0.99996 4e-05
2
 0.999999 1e-06
2
 0.9998 0.0002
2
 0.99999 1e-05
2
 0.99997 3e-05
2
 0.99998 2e-05
2
 0.9999 0.0001
2
 0.99988 0.00012
2
 0.9996 0.0004
2
 0.99993 7e-05
1
 1

